seq_benchmarks/naive_ij/naive_ij.smt2
(set-option :print-success false)
(set-info :smt-lib-version 2.6)
(set-logic ALL)
; done setting options


(declare-datatypes ((T@$Location 0)) ((($Global (|a#$Global| Int) ) ($Local (|i#$Local| Int) ) ($Param (|i#$Param| Int) ) ) ))
(declare-datatypes ((T@$Mutation_3430 0)) ((($Mutation_3430 (|l#$Mutation_3430| T@$Location) (|p#$Mutation_3430| (Seq Int)) (|v#$Mutation_3430| Int) ) ) ))
(declare-datatypes ((T@$Mutation_9288 0)) ((($Mutation_9288 (|l#$Mutation_9288| T@$Location) (|p#$Mutation_9288| (Seq Int)) (|v#$Mutation_9288| (Seq Int)) ) ) ))
(declare-datatypes ((T@$Range 0)) ((($Range (|lb#$Range| Int) (|ub#$Range| Int) ) ) ))
(declare-fun $MAX_U8 () Int)
(declare-fun $MAX_U64 () Int)
(declare-fun $MAX_U128 () Int)
(declare-fun |$IsValid'u8'| (Int) Bool)
(declare-fun |$IsValid'u64'| (Int) Bool)
(declare-fun |$IsValid'u128'| (Int) Bool)
(declare-fun |$IsValid'num'| (Int) Bool)
(declare-fun |$IsValid'address'| (Int) Bool)
(declare-fun $InRange (T@$Range Int) Bool)
(declare-sort |T@[Int]Bool| 0)
(declare-fun $ConstMemoryDomain (Bool) |T@[Int]Bool|)
(declare-fun |lambda#0| (Bool) |T@[Int]Bool|)
(declare-fun $EXEC_FAILURE_CODE () Int)
(declare-fun $shl (Int Int) Int)
(declare-fun $shr (Int Int) Int)
(declare-fun |$IsValid'vec'u64''| ((Seq Int)) Bool)
(declare-fun |$IndexOfVec'u64'| ((Seq Int) Int) Int)
(declare-fun |$IsValid'vec'u8''| ((Seq Int)) Bool)
(declare-fun |$IndexOfVec'u8'| ((Seq Int) Int) Int)
(declare-fun $1_Hash_sha2 ((Seq Int)) (Seq Int))
(declare-fun $1_Hash_sha3 ((Seq Int)) (Seq Int))
(declare-fun $1_Signature_$ed25519_validate_pubkey ((Seq Int)) Bool)
(declare-fun $1_Signature_$ed25519_verify ((Seq Int) (Seq Int) (Seq Int)) Bool)
(declare-fun ReverseVec_3283 ((Seq Int)) (Seq Int))
(declare-fun |Select_[$int]$bool| (|T@[Int]Bool| Int) Bool)
(assert (= $MAX_U8 255))
(assert (= $MAX_U64 18446744073709551615))
(assert (= $MAX_U128 340282366920938463463374607431768211455))
(assert (forall ((v Int) ) (! (= (|$IsValid'u8'| v)  (and (>= v 0) (<= v $MAX_U8)))
 :qid |naiveijbpl.160:23|
 :skolemid |4|
 :pattern ( (|$IsValid'u8'| v))
)))
(assert (forall ((v@@0 Int) ) (! (= (|$IsValid'u64'| v@@0)  (and (>= v@@0 0) (<= v@@0 $MAX_U64)))
 :qid |naiveijbpl.164:24|
 :skolemid |5|
 :pattern ( (|$IsValid'u64'| v@@0))
)))
(assert (forall ((v@@1 Int) ) (! (= (|$IsValid'u128'| v@@1)  (and (>= v@@1 0) (<= v@@1 $MAX_U128)))
 :qid |naiveijbpl.168:25|
 :skolemid |6|
 :pattern ( (|$IsValid'u128'| v@@1))
)))
(assert (forall ((v@@2 Int) ) (! (= (|$IsValid'num'| v@@2) true)
 :qid |naiveijbpl.172:24|
 :skolemid |7|
 :pattern ( (|$IsValid'num'| v@@2))
)))
(assert (forall ((v@@3 Int) ) (! (= (|$IsValid'address'| v@@3) (>= v@@3 0))
 :qid |naiveijbpl.176:28|
 :skolemid |8|
 :pattern ( (|$IsValid'address'| v@@3))
)))
(assert (forall ((r T@$Range) (i Int) ) (! (= ($InRange r i)  (and (<= (|lb#$Range| r) i) (< i (|ub#$Range| r))))
 :qid |naiveijbpl.186:19|
 :skolemid |9|
 :pattern ( ($InRange r i))
)))
(assert (= ($ConstMemoryDomain false) (|lambda#0| false)))
(assert (= ($ConstMemoryDomain true) (|lambda#0| true)))
(assert (= $EXEC_FAILURE_CODE (- 0 1)))
(assert (forall ((src1 Int) (p Int) ) (! (= ($shl src1 p) (ite (= p 8) (* src1 256) (ite (= p 16) (* src1 65536) (ite (= p 32) (* src1 4294967296) (ite (= p 64) (* src1 18446744073709551616) (- 0 1))))))
 :qid |naiveijbpl.452:15|
 :skolemid |13|
 :pattern ( ($shl src1 p))
)))
(assert (forall ((src1@@0 Int) (p@@0 Int) ) (! (= ($shr src1@@0 p@@0) (ite (= p@@0 8) (div src1@@0 256) (ite (= p@@0 16) (div src1@@0 65536) (ite (= p@@0 32) (div src1@@0 4294967296) (ite (= p@@0 64) (div src1@@0 18446744073709551616) (- 0 1))))))
 :qid |naiveijbpl.461:15|
 :skolemid |14|
 :pattern ( ($shr src1@@0 p@@0))
)))
(assert (forall ((v@@4 (Seq Int)) ) (! (= (|$IsValid'vec'u64''| v@@4)  (and (|$IsValid'u64'| (seq.len v@@4)) (forall ((i@@0 Int) ) (!  (=> (and (>= i@@0 0) (< i@@0 (seq.len v@@4))) (|$IsValid'u64'| (seq.nth v@@4 i@@0)))
 :qid |naiveijbpl.590:13|
 :skolemid |15|
))))
 :qid |naiveijbpl.588:29|
 :skolemid |16|
 :pattern ( (|$IsValid'vec'u64''| v@@4))
)))
(assert (forall ((v@@5 (Seq Int)) (e Int) ) (! (let ((i@@1 (|$IndexOfVec'u64'| v@@5 e)))
(ite  (not (exists ((i@@2 Int) ) (!  (and (and (|$IsValid'u64'| i@@2) (and (>= i@@2 0) (< i@@2 (seq.len v@@5)))) (= (seq.nth v@@5 i@@2) e))
 :qid |naiveijbpl.595:13|
 :skolemid |17|
))) (= i@@1 (- 0 1))  (and (and (and (|$IsValid'u64'| i@@1) (and (>= i@@1 0) (< i@@1 (seq.len v@@5)))) (= (seq.nth v@@5 i@@1) e)) (forall ((j Int) ) (!  (=> (and (and (|$IsValid'u64'| j) (>= j 0)) (< j i@@1)) (not (= (seq.nth v@@5 j) e)))
 :qid |naiveijbpl.603:17|
 :skolemid |18|
)))))
 :qid |naiveijbpl.599:15|
 :skolemid |19|
 :pattern ( (|$IndexOfVec'u64'| v@@5 e))
)))
(assert (forall ((v@@6 (Seq Int)) ) (! (= (|$IsValid'vec'u8''| v@@6)  (and (|$IsValid'u64'| (seq.len v@@6)) (forall ((i@@3 Int) ) (!  (=> (and (>= i@@3 0) (< i@@3 (seq.len v@@6))) (|$IsValid'u8'| (seq.nth v@@6 i@@3)))
 :qid |naiveijbpl.770:13|
 :skolemid |20|
))))
 :qid |naiveijbpl.768:28|
 :skolemid |21|
 :pattern ( (|$IsValid'vec'u8''| v@@6))
)))
(assert (forall ((v@@7 (Seq Int)) (e@@0 Int) ) (! (let ((i@@4 (|$IndexOfVec'u8'| v@@7 e@@0)))
(ite  (not (exists ((i@@5 Int) ) (!  (and (and (|$IsValid'u64'| i@@5) (and (>= i@@5 0) (< i@@5 (seq.len v@@7)))) (= (seq.nth v@@7 i@@5) e@@0))
 :qid |naiveijbpl.775:13|
 :skolemid |22|
))) (= i@@4 (- 0 1))  (and (and (and (|$IsValid'u64'| i@@4) (and (>= i@@4 0) (< i@@4 (seq.len v@@7)))) (= (seq.nth v@@7 i@@4) e@@0)) (forall ((j@@0 Int) ) (!  (=> (and (and (|$IsValid'u64'| j@@0) (>= j@@0 0)) (< j@@0 i@@4)) (not (= (seq.nth v@@7 j@@0) e@@0)))
 :qid |naiveijbpl.783:17|
 :skolemid |23|
)))))
 :qid |naiveijbpl.779:15|
 :skolemid |24|
 :pattern ( (|$IndexOfVec'u8'| v@@7 e@@0))
)))
(assert (forall ((v1 (Seq Int)) (v2 (Seq Int)) ) (! (= (= v1 v2) (= ($1_Hash_sha2 v1) ($1_Hash_sha2 v2)))
 :qid |naiveijbpl.956:15|
 :skolemid |25|
 :pattern ( ($1_Hash_sha2 v1) ($1_Hash_sha2 v2))
)))
(assert (forall ((v1@@0 (Seq Int)) (v2@@0 (Seq Int)) ) (! (= (= v1@@0 v2@@0) (= ($1_Hash_sha3 v1@@0) ($1_Hash_sha3 v2@@0)))
 :qid |naiveijbpl.972:15|
 :skolemid |26|
 :pattern ( ($1_Hash_sha3 v1@@0) ($1_Hash_sha3 v2@@0))
)))
(assert (forall ((k1 (Seq Int)) (k2 (Seq Int)) ) (!  (=> (= k1 k2) (= ($1_Signature_$ed25519_validate_pubkey k1) ($1_Signature_$ed25519_validate_pubkey k2)))
 :qid |naiveijbpl.1019:15|
 :skolemid |27|
 :pattern ( ($1_Signature_$ed25519_validate_pubkey k1) ($1_Signature_$ed25519_validate_pubkey k2))
)))
(assert (forall ((s1 (Seq Int)) (s2 (Seq Int)) (k1@@0 (Seq Int)) (k2@@0 (Seq Int)) (m1 (Seq Int)) (m2 (Seq Int)) ) (!  (=> (and (and (= s1 s2) (= k1@@0 k2@@0)) (= m1 m2)) (= ($1_Signature_$ed25519_verify s1 k1@@0 m1) ($1_Signature_$ed25519_verify s2 k2@@0 m2)))
 :qid |naiveijbpl.1022:15|
 :skolemid |28|
 :pattern ( ($1_Signature_$ed25519_verify s1 k1@@0 m1) ($1_Signature_$ed25519_verify s2 k2@@0 m2))
)))
(assert (forall ((v@@8 (Seq Int)) ) (! (let ((r@@0 (ReverseVec_3283 v@@8)))
 (and (= (seq.len r@@0) (seq.len v@@8)) (forall ((i@@6 Int) ) (!  (=> (and (>= i@@6 0) (< i@@6 (seq.len r@@0))) (= (seq.nth r@@0 i@@6) (seq.nth v@@8 (- (- (seq.len v@@8) i@@6) 1))))
 :qid |naiveijbpl.67:18|
 :skolemid |0|
 :pattern ( (seq.nth r@@0 i@@6))
))))
 :qid |naiveijbpl.64:32|
 :skolemid |1|
 :pattern ( (ReverseVec_3283 v@@8))
)))
(assert (forall ((|l#0| Bool) (i@@7 Int) ) (! (= (|Select_[$int]$bool| (|lambda#0| |l#0|) i@@7) |l#0|)
 :qid |naiveijbpl.245:54|
 :skolemid |36|
 :pattern ( (|Select_[$int]$bool| (|lambda#0| |l#0|) i@@7))
)))
(declare-fun ControlFlow (Int Int) Int)
(declare-fun $abort_flag@2 () Bool)
(declare-fun $abort_code@3 () Int)
(declare-fun $abort_flag@7 () Bool)
(declare-fun $abort_code@8 () Int)
(declare-fun $abort_flag@6 () Bool)
(declare-fun $abort_code@7 () Int)
(declare-fun $abort_flag@5 () Bool)
(declare-fun $abort_code@6 () Int)
(declare-fun $abort_flag@4 () Bool)
(declare-fun $abort_code@5 () Int)
(declare-fun $abort_flag@1 () Bool)
(declare-fun $abort_code@2 () Int)
(declare-fun $abort_flag@0 () Bool)
(declare-fun $abort_code@1 () Int)
(declare-fun $t1@0 () Int)
(declare-fun $t2@0 () Int)
(declare-fun $t0@2 () T@$Mutation_9288)
(declare-fun |inline$$1_Vector_length'u64'$0$l@1| () Int)
(declare-fun inline$$AddU64$3$dst@2 () Int)
(declare-fun inline$$AddU64$3$dst@0 () Int)
(declare-fun $t14@0 () Int)
(declare-fun inline$$AddU64$3$dst@1 () Int)
(declare-fun inline$$Lt$1$dst@1 () Bool)
(declare-fun inline$$AddU64$2$dst@2 () Int)
(declare-fun inline$$AddU64$1$dst@2 () Int)
(declare-fun inline$$AddU64$2$dst@0 () Int)
(declare-fun inline$$AddU64$2$dst@1 () Int)
(declare-fun inline$$AddU64$1$dst@0 () Int)
(declare-fun $t13@0 () Int)
(declare-fun inline$$AddU64$1$dst@1 () Int)
(declare-fun inline$$AddU64$0$dst@2 () Int)
(declare-fun inline$$AddU64$0$dst@0 () Int)
(declare-fun inline$$AddU64$0$dst@1 () Int)
(declare-fun $abort_flag@3 () Bool)
(declare-fun $abort_code@4 () Int)
(declare-fun |inline$$1_Vector_swap'u64'$0$m'@2| () T@$Mutation_9288)
(declare-fun |inline$$1_Vector_swap'u64'$0$m'@0| () T@$Mutation_9288)
(declare-fun |inline$$1_Vector_swap'u64'$0$v@1| () (Seq Int))
(declare-fun |inline$$1_Vector_swap'u64'$0$m'@1| () T@$Mutation_9288)
(declare-fun $t0@0 () T@$Mutation_9288)
(declare-fun inline$$Gt$0$dst@1 () Bool)
(declare-fun |inline$$1_Vector_borrow'u64'$0$dst@2| () Int)
(declare-fun |inline$$1_Vector_borrow'u64'$1$dst@2| () Int)
(declare-fun |inline$$1_Vector_borrow'u64'$1$dst@0| () Int)
(declare-fun $t18@1 () (Seq Int))
(declare-fun |inline$$1_Vector_borrow'u64'$1$dst@1| () Int)
(declare-fun |inline$$1_Vector_borrow'u64'$0$dst@0| () Int)
(declare-fun $t16@1 () (Seq Int))
(declare-fun |inline$$1_Vector_borrow'u64'$0$dst@1| () Int)
(declare-fun $abort_code@0 () Int)
(declare-fun inline$$Lt$0$dst@1 () Bool)
(declare-fun |$temp_0'vec'u64''@3| () (Seq Int))
(declare-fun |$temp_0'vec'u64''@4| () (Seq Int))
(declare-fun $t0@1 () T@$Mutation_9288)
(declare-fun |$temp_0'vec'u64''@5| () (Seq Int))
(declare-fun inline$$Le$0$dst@1 () Bool)
(declare-fun _$t0 () T@$Mutation_9288)
(declare-fun $t16@0 () (Seq Int))
(declare-fun $t17@0 () Int)
(declare-fun $t18@0 () (Seq Int))
(declare-fun $t19@0 () Int)
(declare-fun $t21@0 () Int)
(declare-fun $t22@0 () Int)
(declare-fun $t24@0 () Int)
(declare-fun $t25@0 () Int)
(declare-fun $t26@0 () Int)
(declare-fun $t27@0 () Int)
(declare-fun $t28@0 () Int)
(declare-fun $t29@0 () Int)
(declare-fun |$temp_0'vec'u64''@2| () (Seq Int))
(declare-fun |$temp_0'vec'u64''@1| () (Seq Int))
(declare-fun $t8@0 () (Seq Int))
(declare-fun |$temp_0'vec'u64''@0| () (Seq Int))
(declare-fun $t3 () T@$Mutation_9288)
(declare-fun $t5 () T@$Mutation_9288)
(push 1)
(set-info :boogie-vc-id $42_TestNaiveSort_verify_sort$verify)
(assert (not
 (=> (= (ControlFlow 0 0) 16509) (let ((L16_correct  (=> (= (ControlFlow 0 15805) (- 0 18335)) false)))
(let ((anon40_Then_correct  (=> $abort_flag@2 (=> (and (= $abort_code@3 $abort_code@3) (= (ControlFlow 0 16270) 15805)) L16_correct))))
(let ((anon43_Then_correct  (=> $abort_flag@7 (=> (and (= $abort_code@8 $abort_code@8) (= (ControlFlow 0 16014) 15805)) L16_correct))))
(let ((anon45_Then_correct  (=> $abort_flag@6 (=> (and (= $abort_code@7 $abort_code@7) (= (ControlFlow 0 15795) 15805)) L16_correct))))
(let ((anon44_Then_correct  (=> $abort_flag@5 (=> (and (= $abort_code@6 $abort_code@6) (= (ControlFlow 0 15819) 15805)) L16_correct))))
(let ((anon41_Then_correct  (=> $abort_flag@4 (=> (and (= $abort_code@5 $abort_code@5) (= (ControlFlow 0 16028) 15805)) L16_correct))))
(let ((anon38_Then_correct  (=> $abort_flag@1 (=> (and (= $abort_code@2 $abort_code@2) (= (ControlFlow 0 16284) 15805)) L16_correct))))
(let ((anon37_Then_correct  (=> $abort_flag@0 (=> (and (= $abort_code@1 $abort_code@1) (= (ControlFlow 0 16298) 15805)) L16_correct))))
(let ((L12_correct  (and (=> (= (ControlFlow 0 15781) (- 0 18377)) (< $t1@0 $t2@0)) (=> (< $t1@0 $t2@0) (and (=> (= (ControlFlow 0 15781) (- 0 18384)) (= (seq.len (|v#$Mutation_9288| $t0@2)) |inline$$1_Vector_length'u64'$0$l@1|)) (=> (= (seq.len (|v#$Mutation_9288| $t0@2)) |inline$$1_Vector_length'u64'$0$l@1|) (and (=> (= (ControlFlow 0 15781) (- 0 18395)) (< $t1@0 |inline$$1_Vector_length'u64'$0$l@1|)) (=> (< $t1@0 |inline$$1_Vector_length'u64'$0$l@1|) (and (=> (= (ControlFlow 0 15781) (- 0 18402)) (<= $t2@0 |inline$$1_Vector_length'u64'$0$l@1|)) (=> (<= $t2@0 |inline$$1_Vector_length'u64'$0$l@1|) (and (=> (= (ControlFlow 0 15781) (- 0 18409)) (let (($range_0 ($Range 0 (- $t1@0 1))))
(forall (($i_1 Int) ) (!  (=> ($InRange $range_0 $i_1) (let ((k $i_1))
(<= (seq.nth (|v#$Mutation_9288| $t0@2) k) (seq.nth (|v#$Mutation_9288| $t0@2) (+ k 1)))))
 :qid |naiveijbpl.1584:54|
 :skolemid |33|
)))) (=> (let (($range_0 ($Range 0 (- $t1@0 1))))
(forall (($i_1@@0 Int) ) (!  (=> ($InRange $range_0 $i_1@@0) (let ((k $i_1@@0))
(<= (seq.nth (|v#$Mutation_9288| $t0@2) k) (seq.nth (|v#$Mutation_9288| $t0@2) (+ k 1)))))
 :qid |naiveijbpl.1584:54|
 :skolemid |33|
))) (=> (= (ControlFlow 0 15781) (- 0 18458)) (let (($range_0@@0 ($Range (+ $t1@0 1) $t2@0)))
(forall (($i_1@@1 Int) ) (!  (=> ($InRange $range_0@@0 $i_1@@1) (let ((k@@0 $i_1@@1))
(<= (seq.nth (|v#$Mutation_9288| $t0@2) $t1@0) (seq.nth (|v#$Mutation_9288| $t0@2) k@@0))))
 :qid |naiveijbpl.1590:56|
 :skolemid |34|
))))))))))))))))
(let ((anon43_Else_correct  (=> (not $abort_flag@7) (=> (and (and (= inline$$AddU64$3$dst@2 inline$$AddU64$3$dst@2) (= $t1@0 0)) (and (= $t2@0 inline$$AddU64$3$dst@2) (= (ControlFlow 0 16000) 15781))) L12_correct))))
(let ((inline$$AddU64$3$anon3_Then$1_correct  (=> (= $abort_code@8 $EXEC_FAILURE_CODE) (=> (and (= $abort_flag@7 true) (= inline$$AddU64$3$dst@2 inline$$AddU64$3$dst@0)) (and (=> (= (ControlFlow 0 15976) 16014) anon43_Then_correct) (=> (= (ControlFlow 0 15976) 16000) anon43_Else_correct))))))
(let ((inline$$AddU64$3$anon3_Then_correct  (=> (and (> (+ $t14@0 1) $MAX_U64) (= (ControlFlow 0 15974) 15976)) inline$$AddU64$3$anon3_Then$1_correct)))
(let ((inline$$AddU64$3$anon3_Else_correct  (=> (>= $MAX_U64 (+ $t14@0 1)) (=> (and (and (= inline$$AddU64$3$dst@1 (+ $t14@0 1)) (= $abort_code@8 $abort_code@5)) (and (= $abort_flag@7 $abort_flag@4) (= inline$$AddU64$3$dst@2 inline$$AddU64$3$dst@1))) (and (=> (= (ControlFlow 0 15922) 16014) anon43_Then_correct) (=> (= (ControlFlow 0 15922) 16000) anon43_Else_correct))))))
(let ((anon42_Then_correct  (=> (and inline$$Lt$1$dst@1 (|$IsValid'u64'| 1)) (and (=> (= (ControlFlow 0 15982) 15974) inline$$AddU64$3$anon3_Then_correct) (=> (= (ControlFlow 0 15982) 15922) inline$$AddU64$3$anon3_Else_correct)))))
(let ((anon45_Else_correct  (=> (not $abort_flag@6) (=> (and (and (= inline$$AddU64$2$dst@2 inline$$AddU64$2$dst@2) (= $t1@0 inline$$AddU64$1$dst@2)) (and (= $t2@0 inline$$AddU64$2$dst@2) (= (ControlFlow 0 15643) 15781))) L12_correct))))
(let ((inline$$AddU64$2$anon3_Then$1_correct  (=> (= $abort_flag@6 true) (=> (and (= $abort_code@7 $EXEC_FAILURE_CODE) (= inline$$AddU64$2$dst@2 inline$$AddU64$2$dst@0)) (and (=> (= (ControlFlow 0 15619) 15795) anon45_Then_correct) (=> (= (ControlFlow 0 15619) 15643) anon45_Else_correct))))))
(let ((inline$$AddU64$2$anon3_Then_correct  (=> (and (> (+ inline$$AddU64$1$dst@2 1) $MAX_U64) (= (ControlFlow 0 15617) 15619)) inline$$AddU64$2$anon3_Then$1_correct)))
(let ((inline$$AddU64$2$anon3_Else_correct  (=> (>= $MAX_U64 (+ inline$$AddU64$1$dst@2 1)) (=> (and (and (= inline$$AddU64$2$dst@1 (+ inline$$AddU64$1$dst@2 1)) (= $abort_flag@6 $abort_flag@5)) (and (= $abort_code@7 $abort_code@6) (= inline$$AddU64$2$dst@2 inline$$AddU64$2$dst@1))) (and (=> (= (ControlFlow 0 15565) 15795) anon45_Then_correct) (=> (= (ControlFlow 0 15565) 15643) anon45_Else_correct))))))
(let ((anon44_Else_correct  (=> (not $abort_flag@5) (=> (and (= inline$$AddU64$1$dst@2 inline$$AddU64$1$dst@2) (|$IsValid'u64'| 1)) (and (=> (= (ControlFlow 0 15625) 15617) inline$$AddU64$2$anon3_Then_correct) (=> (= (ControlFlow 0 15625) 15565) inline$$AddU64$2$anon3_Else_correct))))))
(let ((inline$$AddU64$1$anon3_Then$1_correct  (=> (= $abort_code@6 $EXEC_FAILURE_CODE) (=> (and (= $abort_flag@5 true) (= inline$$AddU64$1$dst@2 inline$$AddU64$1$dst@0)) (and (=> (= (ControlFlow 0 15442) 15819) anon44_Then_correct) (=> (= (ControlFlow 0 15442) 15625) anon44_Else_correct))))))
(let ((inline$$AddU64$1$anon3_Then_correct  (=> (and (> (+ $t13@0 1) $MAX_U64) (= (ControlFlow 0 15440) 15442)) inline$$AddU64$1$anon3_Then$1_correct)))
(let ((inline$$AddU64$1$anon3_Else_correct  (=> (>= $MAX_U64 (+ $t13@0 1)) (=> (and (and (= inline$$AddU64$1$dst@1 (+ $t13@0 1)) (= $abort_code@6 $abort_code@5)) (and (= $abort_flag@5 $abort_flag@4) (= inline$$AddU64$1$dst@2 inline$$AddU64$1$dst@1))) (and (=> (= (ControlFlow 0 15388) 15819) anon44_Then_correct) (=> (= (ControlFlow 0 15388) 15625) anon44_Else_correct))))))
(let ((anon42_Else_correct  (=> (and (not inline$$Lt$1$dst@1) (|$IsValid'u64'| 1)) (and (=> (= (ControlFlow 0 15448) 15440) inline$$AddU64$1$anon3_Then_correct) (=> (= (ControlFlow 0 15448) 15388) inline$$AddU64$1$anon3_Else_correct)))))
(let ((inline$$Lt$1$anon0_correct  (=> (= inline$$Lt$1$dst@1 (< inline$$AddU64$0$dst@2 |inline$$1_Vector_length'u64'$0$l@1|)) (and (=> (= (ControlFlow 0 15275) 15982) anon42_Then_correct) (=> (= (ControlFlow 0 15275) 15448) anon42_Else_correct)))))
(let ((anon41_Else_correct  (=> (and (not $abort_flag@4) (= (ControlFlow 0 15281) 15275)) inline$$Lt$1$anon0_correct)))
(let ((inline$$AddU64$0$anon3_Then$1_correct  (=> (= $abort_flag@4 true) (=> (and (= $abort_code@5 $EXEC_FAILURE_CODE) (= inline$$AddU64$0$dst@2 inline$$AddU64$0$dst@0)) (and (=> (= (ControlFlow 0 15221) 16028) anon41_Then_correct) (=> (= (ControlFlow 0 15221) 15281) anon41_Else_correct))))))
(let ((inline$$AddU64$0$anon3_Then_correct  (=> (and (> (+ $t14@0 1) $MAX_U64) (= (ControlFlow 0 15219) 15221)) inline$$AddU64$0$anon3_Then$1_correct)))
(let ((inline$$AddU64$0$anon3_Else_correct  (=> (>= $MAX_U64 (+ $t14@0 1)) (=> (and (and (= inline$$AddU64$0$dst@1 (+ $t14@0 1)) (= $abort_flag@4 $abort_flag@3)) (and (= $abort_code@5 $abort_code@4) (= inline$$AddU64$0$dst@2 inline$$AddU64$0$dst@1))) (and (=> (= (ControlFlow 0 15167) 16028) anon41_Then_correct) (=> (= (ControlFlow 0 15167) 15281) anon41_Else_correct))))))
(let ((L8_correct  (=> (|$IsValid'u64'| 1) (and (=> (= (ControlFlow 0 15227) 15219) inline$$AddU64$0$anon3_Then_correct) (=> (= (ControlFlow 0 15227) 15167) inline$$AddU64$0$anon3_Else_correct)))))
(let ((anon40_Else_correct  (=> (not $abort_flag@2) (=> (and (and (= $t0@2 |inline$$1_Vector_swap'u64'$0$m'@2|) (= $abort_code@4 $abort_code@3)) (and (= $abort_flag@3 $abort_flag@2) (= (ControlFlow 0 16256) 15227))) L8_correct))))
(let ((|inline$$1_Vector_swap'u64'$0$anon3_Then$1_correct|  (=> (= $abort_flag@2 true) (=> (and (= $abort_code@3 $EXEC_FAILURE_CODE) (= |inline$$1_Vector_swap'u64'$0$m'@2| |inline$$1_Vector_swap'u64'$0$m'@0|)) (and (=> (= (ControlFlow 0 16240) 16270) anon40_Then_correct) (=> (= (ControlFlow 0 16240) 16256) anon40_Else_correct))))))
(let ((|inline$$1_Vector_swap'u64'$0$anon3_Then_correct|  (=> (and (or (not (and (>= $t13@0 0) (< $t13@0 (seq.len |inline$$1_Vector_swap'u64'$0$v@1|)))) (not (and (>= $t14@0 0) (< $t14@0 (seq.len |inline$$1_Vector_swap'u64'$0$v@1|))))) (= (ControlFlow 0 16238) 16240)) |inline$$1_Vector_swap'u64'$0$anon3_Then$1_correct|)))
(let ((|inline$$1_Vector_swap'u64'$0$anon3_Else_correct|  (=> (not (or (not (and (>= $t13@0 0) (< $t13@0 (seq.len |inline$$1_Vector_swap'u64'$0$v@1|)))) (not (and (>= $t14@0 0) (< $t14@0 (seq.len |inline$$1_Vector_swap'u64'$0$v@1|)))))) (=> (and (and (= |inline$$1_Vector_swap'u64'$0$m'@1| ($Mutation_9288 (|l#$Mutation_9288| $t0@0) (|p#$Mutation_9288| $t0@0) (seq.++ (seq.extract (seq.++ (seq.extract |inline$$1_Vector_swap'u64'$0$v@1| 0 (- $t14@0 0)) (seq.unit (seq.nth |inline$$1_Vector_swap'u64'$0$v@1| $t13@0)) (seq.extract |inline$$1_Vector_swap'u64'$0$v@1| (+ $t14@0 1) (- (seq.len |inline$$1_Vector_swap'u64'$0$v@1|) (+ $t14@0 1)))) 0 (- $t13@0 0)) (seq.unit (seq.nth |inline$$1_Vector_swap'u64'$0$v@1| $t14@0)) (seq.extract (seq.++ (seq.extract |inline$$1_Vector_swap'u64'$0$v@1| 0 (- $t14@0 0)) (seq.unit (seq.nth |inline$$1_Vector_swap'u64'$0$v@1| $t13@0)) (seq.extract |inline$$1_Vector_swap'u64'$0$v@1| (+ $t14@0 1) (- (seq.len |inline$$1_Vector_swap'u64'$0$v@1|) (+ $t14@0 1)))) (+ $t13@0 1) (- (seq.len (seq.++ (seq.extract |inline$$1_Vector_swap'u64'$0$v@1| 0 (- $t14@0 0)) (seq.unit (seq.nth |inline$$1_Vector_swap'u64'$0$v@1| $t13@0)) (seq.extract |inline$$1_Vector_swap'u64'$0$v@1| (+ $t14@0 1) (- (seq.len |inline$$1_Vector_swap'u64'$0$v@1|) (+ $t14@0 1))))) (+ $t13@0 1)))))) (= $abort_flag@2 $abort_flag@1)) (and (= $abort_code@3 $abort_code@2) (= |inline$$1_Vector_swap'u64'$0$m'@2| |inline$$1_Vector_swap'u64'$0$m'@1|))) (and (=> (= (ControlFlow 0 16178) 16270) anon40_Then_correct) (=> (= (ControlFlow 0 16178) 16256) anon40_Else_correct))))))
(let ((|inline$$1_Vector_swap'u64'$0$anon0_correct|  (=> (= |inline$$1_Vector_swap'u64'$0$v@1| (|v#$Mutation_9288| $t0@0)) (and (=> (= (ControlFlow 0 16144) 16238) |inline$$1_Vector_swap'u64'$0$anon3_Then_correct|) (=> (= (ControlFlow 0 16144) 16178) |inline$$1_Vector_swap'u64'$0$anon3_Else_correct|)))))
(let ((anon39_Then_correct  (=> (and inline$$Gt$0$dst@1 (= (ControlFlow 0 16246) 16144)) |inline$$1_Vector_swap'u64'$0$anon0_correct|)))
(let ((anon39_Else_correct  (=> (not inline$$Gt$0$dst@1) (=> (and (and (= $t0@2 $t0@0) (= $abort_code@4 $abort_code@2)) (and (= $abort_flag@3 $abort_flag@1) (= (ControlFlow 0 15066) 15227))) L8_correct))))
(let ((inline$$Gt$0$anon0_correct  (=> (= inline$$Gt$0$dst@1 (> |inline$$1_Vector_borrow'u64'$0$dst@2| |inline$$1_Vector_borrow'u64'$1$dst@2|)) (and (=> (= (ControlFlow 0 15052) 16246) anon39_Then_correct) (=> (= (ControlFlow 0 15052) 15066) anon39_Else_correct)))))
(let ((anon38_Else_correct  (=> (and (not $abort_flag@1) (= (ControlFlow 0 15058) 15052)) inline$$Gt$0$anon0_correct)))
(let ((|inline$$1_Vector_borrow'u64'$1$anon3_Then$1_correct|  (=> (= $abort_code@2 $EXEC_FAILURE_CODE) (=> (and (= $abort_flag@1 true) (= |inline$$1_Vector_borrow'u64'$1$dst@2| |inline$$1_Vector_borrow'u64'$1$dst@0|)) (and (=> (= (ControlFlow 0 14998) 16284) anon38_Then_correct) (=> (= (ControlFlow 0 14998) 15058) anon38_Else_correct))))))
(let ((|inline$$1_Vector_borrow'u64'$1$anon3_Then_correct|  (=> (and (not (and (>= $t14@0 0) (< $t14@0 (seq.len $t18@1)))) (= (ControlFlow 0 14996) 14998)) |inline$$1_Vector_borrow'u64'$1$anon3_Then$1_correct|)))
(let ((|inline$$1_Vector_borrow'u64'$1$anon3_Else_correct|  (=> (and (>= $t14@0 0) (< $t14@0 (seq.len $t18@1))) (=> (and (and (= |inline$$1_Vector_borrow'u64'$1$dst@1| (seq.nth $t18@1 $t14@0)) (= $abort_code@2 $abort_code@1)) (and (= $abort_flag@1 $abort_flag@0) (= |inline$$1_Vector_borrow'u64'$1$dst@2| |inline$$1_Vector_borrow'u64'$1$dst@1|))) (and (=> (= (ControlFlow 0 14946) 16284) anon38_Then_correct) (=> (= (ControlFlow 0 14946) 15058) anon38_Else_correct))))))
(let ((anon37_Else_correct  (=> (and (not $abort_flag@0) (= $t18@1 (|v#$Mutation_9288| $t0@0))) (and (=> (= (ControlFlow 0 15004) 14996) |inline$$1_Vector_borrow'u64'$1$anon3_Then_correct|) (=> (= (ControlFlow 0 15004) 14946) |inline$$1_Vector_borrow'u64'$1$anon3_Else_correct|)))))
(let ((|inline$$1_Vector_borrow'u64'$0$anon3_Then$1_correct|  (=> (= $abort_flag@0 true) (=> (and (= $abort_code@1 $EXEC_FAILURE_CODE) (= |inline$$1_Vector_borrow'u64'$0$dst@2| |inline$$1_Vector_borrow'u64'$0$dst@0|)) (and (=> (= (ControlFlow 0 14845) 16298) anon37_Then_correct) (=> (= (ControlFlow 0 14845) 15004) anon37_Else_correct))))))
(let ((|inline$$1_Vector_borrow'u64'$0$anon3_Then_correct|  (=> (and (not (and (>= $t13@0 0) (< $t13@0 (seq.len $t16@1)))) (= (ControlFlow 0 14843) 14845)) |inline$$1_Vector_borrow'u64'$0$anon3_Then$1_correct|)))
(let ((|inline$$1_Vector_borrow'u64'$0$anon3_Else_correct|  (=> (and (>= $t13@0 0) (< $t13@0 (seq.len $t16@1))) (=> (and (and (= |inline$$1_Vector_borrow'u64'$0$dst@1| (seq.nth $t16@1 $t13@0)) (= $abort_flag@0 false)) (and (= $abort_code@1 $abort_code@0) (= |inline$$1_Vector_borrow'u64'$0$dst@2| |inline$$1_Vector_borrow'u64'$0$dst@1|))) (and (=> (= (ControlFlow 0 14793) 16298) anon37_Then_correct) (=> (= (ControlFlow 0 14793) 15004) anon37_Else_correct))))))
(let ((anon36_Then_correct  (=> (and (and (and inline$$Lt$0$dst@1 (= $t13@0 $t13@0)) (and (= |$temp_0'vec'u64''@3| (|v#$Mutation_9288| $t0@0)) (= |$temp_0'vec'u64''@3| |$temp_0'vec'u64''@3|))) (and (and (= $t14@0 $t14@0) (= |$temp_0'vec'u64''@4| (|v#$Mutation_9288| $t0@0))) (and (= |$temp_0'vec'u64''@4| |$temp_0'vec'u64''@4|) (= $t16@1 (|v#$Mutation_9288| $t0@0))))) (and (=> (= (ControlFlow 0 14851) 14843) |inline$$1_Vector_borrow'u64'$0$anon3_Then_correct|) (=> (= (ControlFlow 0 14851) 14793) |inline$$1_Vector_borrow'u64'$0$anon3_Else_correct|)))))
(let ((L15_correct  (and (=> (= (ControlFlow 0 14670) (- 0 17485)) (not false)) (=> (not false) (and (=> (= (ControlFlow 0 14670) (- 0 17492)) (> (seq.len (|v#$Mutation_9288| $t0@1)) 0)) (=> (> (seq.len (|v#$Mutation_9288| $t0@1)) 0) (=> (= (ControlFlow 0 14670) (- 0 17504)) (let (($range_0@@1 ($Range 0 (- (seq.len (|v#$Mutation_9288| $t0@1)) 1))))
(forall (($i_1@@2 Int) ) (!  (=> ($InRange $range_0@@1 $i_1@@2) (let ((i@@8 $i_1@@2))
(<= (seq.nth (|v#$Mutation_9288| $t0@1) i@@8) (seq.nth (|v#$Mutation_9288| $t0@1) (+ i@@8 1)))))
 :qid |naiveijbpl.1614:76|
 :skolemid |35|
))))))))))
(let ((anon36_Else_correct  (=> (not inline$$Lt$0$dst@1) (and (=> (= (ControlFlow 0 14593) (- 0 17405)) (= (seq.len (|v#$Mutation_9288| $t0@0)) |inline$$1_Vector_length'u64'$0$l@1|)) (=> (= (seq.len (|v#$Mutation_9288| $t0@0)) |inline$$1_Vector_length'u64'$0$l@1|) (and (=> (= (ControlFlow 0 14593) (- 0 17416)) (= $t13@0 (- |inline$$1_Vector_length'u64'$0$l@1| 1))) (=> (= $t13@0 (- |inline$$1_Vector_length'u64'$0$l@1| 1)) (and (=> (= (ControlFlow 0 14593) (- 0 17427)) (= $t14@0 |inline$$1_Vector_length'u64'$0$l@1|)) (=> (= $t14@0 |inline$$1_Vector_length'u64'$0$l@1|) (and (=> (= (ControlFlow 0 14593) (- 0 17434)) (<= (seq.nth (|v#$Mutation_9288| $t0@0) (- |inline$$1_Vector_length'u64'$0$l@1| 2)) (seq.nth (|v#$Mutation_9288| $t0@0) (- |inline$$1_Vector_length'u64'$0$l@1| 1)))) (=> (<= (seq.nth (|v#$Mutation_9288| $t0@0) (- |inline$$1_Vector_length'u64'$0$l@1| 2)) (seq.nth (|v#$Mutation_9288| $t0@0) (- |inline$$1_Vector_length'u64'$0$l@1| 1))) (=> (and (and (= |$temp_0'vec'u64''@5| (|v#$Mutation_9288| $t0@0)) (= |$temp_0'vec'u64''@5| |$temp_0'vec'u64''@5|)) (and (= $t0@1 $t0@0) (= (ControlFlow 0 14593) 14670))) L15_correct))))))))))))
(let ((anon35_Else$1_correct  (and (=> (= (ControlFlow 0 14515) 14851) anon36_Then_correct) (=> (= (ControlFlow 0 14515) 14593) anon36_Else_correct))))
(let ((inline$$Lt$0$anon0_correct  (=> (and (= inline$$Lt$0$dst@1 (< $t14@0 |inline$$1_Vector_length'u64'$0$l@1|)) (= (ControlFlow 0 14505) 14515)) anon35_Else$1_correct)))
(let ((anon35_Else_correct  (=> (not inline$$Le$0$dst@1) (=> (and (and (|$IsValid'u64'| 0) (= 0 0)) (and (|$IsValid'u64'| 1) (= 1 1))) (and (=> (= (ControlFlow 0 14511) (- 0 16958)) (< 0 1)) (=> (< 0 1) (and (=> (= (ControlFlow 0 14511) (- 0 16965)) (= (seq.len (|v#$Mutation_9288| _$t0)) |inline$$1_Vector_length'u64'$0$l@1|)) (=> (= (seq.len (|v#$Mutation_9288| _$t0)) |inline$$1_Vector_length'u64'$0$l@1|) (and (=> (= (ControlFlow 0 14511) (- 0 16976)) (< 0 |inline$$1_Vector_length'u64'$0$l@1|)) (=> (< 0 |inline$$1_Vector_length'u64'$0$l@1|) (and (=> (= (ControlFlow 0 14511) (- 0 16983)) (<= 1 |inline$$1_Vector_length'u64'$0$l@1|)) (=> (<= 1 |inline$$1_Vector_length'u64'$0$l@1|) (and (=> (= (ControlFlow 0 14511) (- 0 16990)) (let (($range_0@@2 ($Range 0 (- 0 1))))
(forall (($i_1@@3 Int) ) (!  (=> ($InRange $range_0@@2 $i_1@@3) (let ((k@@1 $i_1@@3))
(<= (seq.nth (|v#$Mutation_9288| _$t0) k@@1) (seq.nth (|v#$Mutation_9288| _$t0) (+ k@@1 1)))))
 :qid |naiveijbpl.1226:55|
 :skolemid |29|
)))) (=> (let (($range_0@@2 ($Range 0 (- 0 1))))
(forall (($i_1@@4 Int) ) (!  (=> ($InRange $range_0@@2 $i_1@@4) (let ((k@@1 $i_1@@4))
(<= (seq.nth (|v#$Mutation_9288| _$t0) k@@1) (seq.nth (|v#$Mutation_9288| _$t0) (+ k@@1 1)))))
 :qid |naiveijbpl.1226:55|
 :skolemid |29|
))) (and (=> (= (ControlFlow 0 14511) (- 0 17039)) (let (($range_0@@3 ($Range (+ 0 1) 1)))
(forall (($i_1@@5 Int) ) (!  (=> ($InRange $range_0@@3 $i_1@@5) (let ((k@@2 $i_1@@5))
(<= (seq.nth (|v#$Mutation_9288| _$t0) 0) (seq.nth (|v#$Mutation_9288| _$t0) k@@2))))
 :qid |naiveijbpl.1232:58|
 :skolemid |30|
)))) (=> (let (($range_0@@3 ($Range (+ 0 1) 1)))
(forall (($i_1@@6 Int) ) (!  (=> ($InRange $range_0@@3 $i_1@@6) (let ((k@@2 $i_1@@6))
(<= (seq.nth (|v#$Mutation_9288| _$t0) 0) (seq.nth (|v#$Mutation_9288| _$t0) k@@2))))
 :qid |naiveijbpl.1232:58|
 :skolemid |30|
))) (=> (and (and (and (|$IsValid'u64'| $t13@0) (|$IsValid'u64'| $t14@0)) (and (|$IsValid'vec'u64''| $t16@0) (|$IsValid'u64'| $t17@0))) (and (and (|$IsValid'vec'u64''| $t18@0) (|$IsValid'u64'| $t19@0)) (and (|$IsValid'u64'| $t21@0) (|$IsValid'u64'| $t22@0)))) (=> (and (and (and (and (|$IsValid'u64'| $t24@0) (|$IsValid'u64'| $t25@0)) (and (|$IsValid'u64'| $t26@0) (|$IsValid'u64'| $t27@0))) (and (and (|$IsValid'u64'| $t28@0) (|$IsValid'u64'| $t29@0)) (and (= $t0@0 ($Mutation_9288 (|l#$Mutation_9288| _$t0) (|p#$Mutation_9288| _$t0) |$temp_0'vec'u64''@2|)) (|$IsValid'vec'u64''| (|v#$Mutation_9288| $t0@0))))) (and (and (and (not false) (< $t13@0 $t14@0)) (and (= (seq.len (|v#$Mutation_9288| $t0@0)) |inline$$1_Vector_length'u64'$0$l@1|) (< $t13@0 |inline$$1_Vector_length'u64'$0$l@1|))) (and (and (<= $t14@0 |inline$$1_Vector_length'u64'$0$l@1|) (let (($range_0@@4 ($Range 0 (- $t13@0 1))))
(forall (($i_1@@7 Int) ) (!  (=> ($InRange $range_0@@4 $i_1@@7) (let ((k@@3 $i_1@@7))
(<= (seq.nth (|v#$Mutation_9288| $t0@0) k@@3) (seq.nth (|v#$Mutation_9288| $t0@0) (+ k@@3 1)))))
 :qid |naiveijbpl.1329:60|
 :skolemid |31|
)))) (and (let (($range_0@@5 ($Range (+ $t13@0 1) $t14@0)))
(forall (($i_1@@8 Int) ) (!  (=> ($InRange $range_0@@5 $i_1@@8) (let ((k@@4 $i_1@@8))
(<= (seq.nth (|v#$Mutation_9288| $t0@0) $t13@0) (seq.nth (|v#$Mutation_9288| $t0@0) k@@4))))
 :qid |naiveijbpl.1334:63|
 :skolemid |32|
))) (= (ControlFlow 0 14511) 14505))))) inline$$Lt$0$anon0_correct))))))))))))))))))
(let ((anon35_Then_correct  (=> inline$$Le$0$dst@1 (=> (and (and (= |$temp_0'vec'u64''@1| (|v#$Mutation_9288| _$t0)) (= |$temp_0'vec'u64''@1| |$temp_0'vec'u64''@1|)) (and (= $t0@1 _$t0) (= (ControlFlow 0 16312) 14670))) L15_correct))))
(let ((inline$$Le$0$anon0_correct  (=> (= inline$$Le$0$dst@1 (<= |inline$$1_Vector_length'u64'$0$l@1| 1)) (and (=> (= (ControlFlow 0 14067) 16312) anon35_Then_correct) (=> (= (ControlFlow 0 14067) 14511) anon35_Else_correct)))))
(let ((anon34_Else_correct  (=> (not false) (=> (and (and (= |inline$$1_Vector_length'u64'$0$l@1| |inline$$1_Vector_length'u64'$0$l@1|) (= (seq.len (|v#$Mutation_9288| _$t0)) 2)) (and (|$IsValid'u64'| 1) (= (ControlFlow 0 14073) 14067))) inline$$Le$0$anon0_correct))))
(let ((anon34_Then_correct true))
(let ((|inline$$1_Vector_length'u64'$0$anon0_correct|  (=> (= |inline$$1_Vector_length'u64'$0$l@1| (seq.len $t8@0)) (and (=> (= (ControlFlow 0 13987) 16326) anon34_Then_correct) (=> (= (ControlFlow 0 13987) 14073) anon34_Else_correct)))))
(let ((anon0$1_correct  (=> (and (= (|l#$Mutation_9288| _$t0) ($Param 0)) (|$IsValid'vec'u64''| (|v#$Mutation_9288| _$t0))) (=> (and (and (= |$temp_0'vec'u64''@0| (|v#$Mutation_9288| _$t0)) (= |$temp_0'vec'u64''@0| |$temp_0'vec'u64''@0|)) (and (= $t8@0 (|v#$Mutation_9288| _$t0)) (= (ControlFlow 0 13993) 13987))) |inline$$1_Vector_length'u64'$0$anon0_correct|))))
(let ((anon0_correct  (=> (= (seq.len (|p#$Mutation_9288| $t3)) 0) (=> (and (= (seq.len (|p#$Mutation_9288| $t5)) 0) (= (ControlFlow 0 13921) 13993)) anon0$1_correct))))
(let ((PreconditionGeneratedEntry_correct  (=> (= (ControlFlow 0 16509) 13921) anon0_correct)))
PreconditionGeneratedEntry_correct))))))))))))))))))))))))))))))))))))))))))))))))))))))))))))
))
(check-sat)
(pop 1)
; Undetermined
